words_hard_train/8771.qaiger
aag 131 21 0 1 110
2
4
12
14
18
22
26
30
34
44
52
68
84
144
152
158
166
186
200
214
228
262
6 2 4
8 3 5
10 7 9
16 13 15
20 16 19
24 20 23
28 24 27
32 28 31
36 32 35
38 10 37
40 11 36
42 39 41
46 44 12
48 12 14
50 49 17
54 51 53
56 50 52
58 55 57
60 46 58
62 61 57
64 17 18
66 65 21
70 67 69
72 66 68
74 71 73
76 63 74
78 77 73
80 21 22
82 81 25
86 83 85
88 82 84
90 87 89
92 79 90
94 93 89
96 25 26
98 97 29
100 99 3
102 98 2
104 101 103
106 95 104
108 107 103
110 29 30
112 111 33
114 113 3
116 112 2
118 115 117
120 109 118
122 121 117
124 33 34
126 125 37
128 127 3
130 126 2
132 129 131
134 123 132
136 135 131
138 42 137
140 43 136
142 139 141
146 143 145
148 62 75
150 149 77
154 150 152
156 151 153
160 59 159
162 161 61
164 45 13
168 165 166
170 169 47
172 58 158
174 170 173
176 162 175
178 157 176
180 155 179
182 78 91
184 183 93
188 185 187
190 181 189
192 184 186
194 191 193
196 94 105
198 197 107
202 199 201
204 195 203
206 198 200
208 205 207
210 108 119
212 211 121
216 213 215
218 209 217
220 212 214
222 219 221
224 122 133
226 225 135
230 227 229
232 223 231
234 226 228
236 233 235
238 147 236
240 142 144
242 239 241
244 215 229
246 244 144
248 187 201
250 159 153
252 248 250
254 252 167
256 246 254
258 242 256
260 243 257
262 259 261
i0 1 x2[7]
i1 2 y1[0]
i2 2 y1[7]
i3 2 y1[6]
i4 2 y1[5]
i5 2 y1[4]
i6 2 y1[3]
i7 2 y1[2]
i8 2 y1[1]
i9 1 x2[3]
i10 1 x2[4]
i11 1 x2[5]
i12 1 x2[6]
i13 1 x1[7]
i14 1 x1[2]
i15 1 x1[1]
i16 1 x1[0]
i17 1 x1[3]
i18 1 x1[4]
i19 1 x1[5]
i20 1 x1[6]
o0 bv[0]
c
simplified
  <=
    unary minus
      1 x1
    subtract
      >> 3
        1 x2
      reverse
        2 y1
