words_hard_train/8771.qaiger.qdimacs
p cnf 131 331
a 1 34 100 72 42 107 76 79 114 83 22 26 93 0
e 2 3 4 5 6 7 8 9 10 11 12 13 14 15 16 17 18 19 20 21 23 24 25 27 28 29 30 31 32 33 35 36 37 38 39 40 41 43 44 45 46 47 48 49 50 51 52 53 54 55 56 57 58 59 60 61 62 63 64 65 66 67 68 69 70 71 73 74 75 77 78 80 81 82 84 85 86 87 88 89 90 91 92 94 95 96 97 98 99 101 102 103 104 105 106 108 109 110 111 112 113 115 116 117 118 119 120 121 122 123 124 125 126 127 128 129 130 131 0
-1 -2 3 0
1 -3 0
2 -3 0
1 2 4 0
-1 -4 0
-2 -4 0
3 4 5 0
-3 -5 0
-4 -5 0
6 7 8 0
-6 -8 0
-7 -8 0
-8 9 10 0
8 -10 0
-9 -10 0
-10 11 12 0
10 -12 0
-11 -12 0
-12 13 14 0
12 -14 0
-13 -14 0
-14 15 16 0
14 -16 0
-15 -16 0
-16 17 18 0
16 -18 0
-17 -18 0
-5 18 19 0
5 -19 0
-18 -19 0
5 -18 20 0
-5 -20 0
18 -20 0
19 20 21 0
-19 -21 0
-20 -21 0
-22 -6 23 0
22 -23 0
6 -23 0
-6 -7 24 0
6 -24 0
7 -24 0
24 8 25 0
-24 -25 0
-8 -25 0
25 26 27 0
-25 -27 0
-26 -27 0
-25 -26 28 0
25 -28 0
26 -28 0
27 28 29 0
-27 -29 0
-28 -29 0
-23 -29 30 0
23 -30 0
29 -30 0
30 28 31 0
-30 -31 0
-28 -31 0
8 -9 32 0
-8 -32 0
9 -32 0
32 10 33 0
-32 -33 0
-10 -33 0
33 34 35 0
-33 -35 0
-34 -35 0
-33 -34 36 0
33 -36 0
34 -36 0
35 36 37 0
-35 -37 0
-36 -37 0
31 -37 38 0
-31 -38 0
37 -38 0
38 36 39 0
-38 -39 0
-36 -39 0
10 -11 40 0
-10 -40 0
11 -40 0
40 12 41 0
-40 -41 0
-12 -41 0
41 42 43 0
-41 -43 0
-42 -43 0
-41 -42 44 0
41 -44 0
42 -44 0
43 44 45 0
-43 -45 0
-44 -45 0
39 -45 46 0
-39 -46 0
45 -46 0
46 44 47 0
-46 -47 0
-44 -47 0
12 -13 48 0
-12 -48 0
13 -48 0
48 14 49 0
-48 -49 0
-14 -49 0
49 1 50 0
-49 -50 0
-1 -50 0
-49 -1 51 0
49 -51 0
1 -51 0
50 51 52 0
-50 -52 0
-51 -52 0
47 -52 53 0
-47 -53 0
52 -53 0
53 51 54 0
-53 -54 0
-51 -54 0
14 -15 55 0
-14 -55 0
15 -55 0
55 16 56 0
-55 -56 0
-16 -56 0
56 1 57 0
-56 -57 0
-1 -57 0
-56 -1 58 0
56 -58 0
1 -58 0
57 58 59 0
-57 -59 0
-58 -59 0
54 -59 60 0
-54 -60 0
59 -60 0
60 58 61 0
-60 -61 0
-58 -61 0
16 -17 62 0
-16 -62 0
17 -62 0
62 18 63 0
-62 -63 0
-18 -63 0
63 1 64 0
-63 -64 0
-1 -64 0
-63 -1 65 0
63 -65 0
1 -65 0
64 65 66 0
-64 -66 0
-65 -66 0
61 -66 67 0
-61 -67 0
66 -67 0
67 65 68 0
-67 -68 0
-65 -68 0
-21 68 69 0
21 -69 0
-68 -69 0
21 -68 70 0
-21 -70 0
68 -70 0
69 70 71 0
-69 -71 0
-70 -71 0
71 72 73 0
-71 -73 0
-72 -73 0
-31 37 74 0
31 -74 0
-37 -74 0
74 38 75 0
-74 -75 0
-38 -75 0
-75 -76 77 0
75 -77 0
76 -77 0
75 76 78 0
-75 -78 0
-76 -78 0
29 79 80 0
-29 -80 0
-79 -80 0
80 30 81 0
-80 -81 0
-30 -81 0
22 6 82 0
-22 -82 0
-6 -82 0
82 -83 84 0
-82 -84 0
83 -84 0
84 23 85 0
-84 -85 0
-23 -85 0
-29 -79 86 0
29 -86 0
79 -86 0
-85 86 87 0
85 -87 0
-86 -87 0
-81 87 88 0
81 -88 0
-87 -88 0
78 -88 89 0
-78 -89 0
88 -89 0
77 89 90 0
-77 -90 0
-89 -90 0
-39 45 91 0
39 -91 0
-45 -91 0
91 46 92 0
-91 -92 0
-46 -92 0
92 93 94 0
-92 -94 0
-93 -94 0
90 94 95 0
-90 -95 0
-94 -95 0
-92 -93 96 0
92 -96 0
93 -96 0
95 96 97 0
-95 -97 0
-96 -97 0
-47 52 98 0
47 -98 0
-52 -98 0
98 53 99 0
-98 -99 0
-53 -99 0
99 100 101 0
-99 -101 0
-100 -101 0
97 101 102 0
-97 -102 0
-101 -102 0
-99 -100 103 0
99 -103 0
100 -103 0
102 103 104 0
-102 -104 0
-103 -104 0
-54 59 105 0
54 -105 0
-59 -105 0
105 60 106 0
-105 -106 0
-60 -106 0
106 107 108 0
-106 -108 0
-107 -108 0
104 108 109 0
-104 -109 0
-108 -109 0
-106 -107 110 0
106 -110 0
107 -110 0
109 110 111 0
-109 -111 0
-110 -111 0
-61 66 112 0
61 -112 0
-66 -112 0
112 67 113 0
-112 -113 0
-67 -113 0
113 114 115 0
-113 -115 0
-114 -115 0
111 115 116 0
-111 -116 0
-115 -116 0
-113 -114 117 0
113 -117 0
114 -117 0
116 117 118 0
-116 -118 0
-117 -118 0
73 -118 119 0
-73 -119 0
118 -119 0
-71 -72 120 0
71 -120 0
72 -120 0
119 120 121 0
-119 -121 0
-120 -121 0
107 114 122 0
-107 -122 0
-114 -122 0
-122 -72 123 0
122 -123 0
72 -123 0
93 100 124 0
-93 -124 0
-100 -124 0
79 76 125 0
-79 -125 0
-76 -125 0
-124 -125 126 0
124 -126 0
125 -126 0
-126 83 127 0
126 -127 0
-83 -127 0
-123 -127 128 0
123 -128 0
127 -128 0
-121 -128 129 0
121 -129 0
128 -129 0
121 128 130 0
-121 -130 0
-128 -130 0
129 130 131 0
-129 -131 0
-130 -131 0
131 0
